\ Model bat_deg
\ LP format - for model browsing. Use MPS format to capture full model detail.
Minimize
  C50 + C51 + C52 + C53 + C54 + C55 + C56 + C57 + C58 + C59 + C60 + C61
   + C62 + C63 + C64 + C65 + C66 + C67 + C68 + C69 + C70 + C71 + C72 + C73
   + C74 + C75 + C76 + C77 + C78 + C79 + C80 + C81 + C82 + C83 + C84 + C85
   + C86 + C87 + C88 + C89 + C90 + C91 + C92 + C93 + C94 + C95 + C96 + C97
   + C98 + C99 + C600 + C601 + C602 + C603 + C604 + C605 + C606 + C607
   + C608 + C609 + C610 + C611 + C612 + C613 + C614 + C615 + C616 + C617
   + C618 + C619 + C620 + C621 + C622 + C623 + C624 + C625 + C626 + C627
   + C628 + C629 + C630 + C631 + C632 + C633 + C634 + C635 + C636 + C637
   + C638 + C639 + C640 + C641 + C642 + C643 + C644 + C645 + C646 + C647
   + C648 + C649
Subject To
 R0: C0 >= 0
 R1: C1 >= 0
 R2: C2 >= 0
 R3: C3 >= 0
 R4: C4 >= 0
 R5: C5 >= 0
 R6: C6 >= 0
 R7: C7 >= 0
 R8: C8 >= 0
 R9: C9 >= 0
 R10: C10 >= 0
 R11: C11 >= 0
 R12: C12 >= 0
 R13: C13 >= 0
 R14: C14 >= 0
 R15: C15 >= 0
 R16: C16 >= 0
 R17: C17 >= 0
 R18: C18 >= 0
 R19: C19 >= 0
 R20: C20 >= 0
 R21: C21 >= 0
 R22: C22 >= 0
 R23: C23 >= 0
 R24: C24 >= 0
 R25: C25 >= 0
 R26: C26 >= 0
 R27: C27 >= 0
 R28: C28 >= 0
 R29: C29 >= 0
 R30: C30 >= 0
 R31: C31 >= 0
 R32: C32 >= 0
 R33: C33 >= 0
 R34: C34 >= 0
 R35: C35 >= 0
 R36: C36 >= 0
 R37: C37 >= 0
 R38: C38 >= 0
 R39: C39 >= 0
 R40: C40 >= 0
 R41: C41 >= 0
 R42: C42 >= 0
 R43: C43 >= 0
 R44: C44 >= 0
 R45: C45 >= 0
 R46: C46 >= 0
 R47: C47 >= 0
 R48: C48 >= 0
 R49: C49 >= 0
 R50: C0 <= 100
 R51: C1 <= 100
 R52: C2 <= 100
 R53: C3 <= 100
 R54: C4 <= 100
 R55: C5 <= 100
 R56: C6 <= 100
 R57: C7 <= 100
 R58: C8 <= 100
 R59: C9 <= 100
 R60: C10 <= 100
 R61: C11 <= 100
 R62: C12 <= 100
 R63: C13 <= 100
 R64: C14 <= 100
 R65: C15 <= 100
 R66: C16 <= 100
 R67: C17 <= 100
 R68: C18 <= 100
 R69: C19 <= 100
 R70: C20 <= 100
 R71: C21 <= 100
 R72: C22 <= 100
 R73: C23 <= 100
 R74: C24 <= 100
 R75: C25 <= 100
 R76: C26 <= 100
 R77: C27 <= 100
 R78: C28 <= 100
 R79: C29 <= 100
 R80: C30 <= 100
 R81: C31 <= 100
 R82: C32 <= 100
 R83: C33 <= 100
 R84: C34 <= 100
 R85: C35 <= 100
 R86: C36 <= 100
 R87: C37 <= 100
 R88: C38 <= 100
 R89: C39 <= 100
 R90: C40 <= 100
 R91: C41 <= 100
 R92: C42 <= 100
 R93: C43 <= 100
 R94: C44 <= 100
 R95: C45 <= 100
 R96: C46 <= 100
 R97: C47 <= 100
 R98: C48 <= 100
 R99: C49 <= 100
 R100: C0 <= 1400
 R101: C1 <= 1400
 R102: C2 <= 1400
 R103: C3 <= 1400
 R104: C4 <= 1400
 R105: C5 <= 1400
 R106: C6 <= 1400
 R107: C7 <= 1400
 R108: C8 <= 1400
 R109: C9 <= 1400
 R110: C10 <= 1400
 R111: C11 <= 1400
 R112: C12 <= 1400
 R113: C13 <= 1400
 R114: C14 <= 1400
 R115: C15 <= 1400
 R116: C16 <= 1400
 R117: C17 <= 1400
 R118: C18 <= 1400
 R119: C19 <= 1400
 R120: C20 <= 1400
 R121: C21 <= 1400
 R122: C22 <= 1400
 R123: C23 <= 1400
 R124: C24 <= 1400
 R125: C25 <= 1400
 R126: C26 <= 1400
 R127: C27 <= 1400
 R128: C28 <= 1400
 R129: C29 <= 1400
 R130: C30 <= 1400
 R131: C31 <= 1400
 R132: C32 <= 1400
 R133: C33 <= 1400
 R134: C34 <= 1400
 R135: C35 <= 1400
 R136: C36 <= 1400
 R137: C37 <= 1400
 R138: C38 <= 1400
 R139: C39 <= 1400
 R140: C40 <= 1400
 R141: C41 <= 1400
 R142: C42 <= 1400
 R143: C43 <= 1400
 R144: C44 <= 1400
 R145: C45 <= 1400
 R146: C46 <= 1400
 R147: C47 <= 1400
 R148: C48 <= 1400
 R149: C49 <= 1400
 R150: 0.1 C0 + 0.1 C1 + 0.1 C2 + 0.1 C3 + 0.1 C4 + 0.1 C5 + 0.1 C6
   + 0.1 C7 + 0.1 C8 + 0.1 C9 + 0.1 C10 + 0.1 C11 + 0.1 C12 + 0.1 C13
   + 0.1 C14 + 0.1 C15 + 0.1 C16 + 0.1 C17 + 0.1 C18 + 0.1 C19 + 0.1 C20
   + 0.1 C21 + 0.1 C22 + 0.1 C23 + 0.1 C24 + 0.1 C25 + 0.1 C26 + 0.1 C27
   + 0.1 C28 + 0.1 C29 + 0.1 C30 + 0.1 C31 + 0.1 C32 + 0.1 C33 + 0.1 C34
   + 0.1 C35 + 0.1 C36 + 0.1 C37 + 0.1 C38 + 0.1 C39 + 0.1 C40 + 0.1 C41
   + 0.1 C42 + 0.1 C43 + 0.1 C44 + 0.1 C45 + 0.1 C46 + 0.1 C47 + 0.1 C48
   + 0.1 C49 >= 99.9
 R151: 0.1 C0 + 0.1 C1 + 0.1 C2 + 0.1 C3 + 0.1 C4 + 0.1 C5 + 0.1 C6
   + 0.1 C7 + 0.1 C8 + 0.1 C9 + 0.1 C10 + 0.1 C11 + 0.1 C12 + 0.1 C13
   + 0.1 C14 + 0.1 C15 + 0.1 C16 + 0.1 C17 + 0.1 C18 + 0.1 C19 + 0.1 C20
   + 0.1 C21 + 0.1 C22 + 0.1 C23 + 0.1 C24 + 0.1 C25 + 0.1 C26 + 0.1 C27
   + 0.1 C28 + 0.1 C29 + 0.1 C30 + 0.1 C31 + 0.1 C32 + 0.1 C33 + 0.1 C34
   + 0.1 C35 + 0.1 C36 + 0.1 C37 + 0.1 C38 + 0.1 C39 + 0.1 C40 + 0.1 C41
   + 0.1 C42 + 0.1 C43 + 0.1 C44 + 0.1 C45 + 0.1 C46 + 0.1 C47 + 0.1 C48
   + 0.1 C49 <= 102.6
 R152: - 0.1 C0 + C100 = 1
 R153: - 0.1 C1 + C101 = 1
 R154: - 0.1 C2 + C102 = 1
 R155: - 0.1 C3 + C103 = 1
 R156: - 0.1 C4 + C104 = 1
 R157: - 0.1 C5 + C105 = 1
 R158: - 0.1 C6 + C106 = 1
 R159: - 0.1 C7 + C107 = 1
 R160: - 0.1 C8 + C108 = 1
 R161: - 0.1 C9 + C109 = 1
 R162: - 0.1 C10 + C110 = 1
 R163: - 0.1 C11 + C111 = 1
 R164: - 0.1 C12 + C112 = 1
 R165: - 0.1 C13 + C113 = 1
 R166: - 0.1 C14 + C114 = 1
 R167: - 0.1 C15 + C115 = 1
 R168: - 0.1 C16 + C116 = 1
 R169: - 0.1 C17 + C117 = 1
 R170: - 0.1 C18 + C118 = 1
 R171: - 0.1 C19 + C119 = 1
 R172: - 0.1 C20 + C120 = 1
 R173: - 0.1 C21 + C121 = 1
 R174: - 0.1 C22 + C122 = 1
 R175: - 0.1 C23 + C123 = 1
 R176: - 0.1 C24 + C124 = 1
 R177: - 0.1 C25 + C125 = 1
 R178: - 0.1 C26 + C126 = 1
 R179: - 0.1 C27 + C127 = 1
 R180: - 0.1 C28 + C128 = 1
 R181: - 0.1 C29 + C129 = 1
 R182: - 0.1 C30 + C130 = 1
 R183: - 0.1 C31 + C131 = 1
 R184: - 0.1 C32 + C132 = 1
 R185: - 0.1 C33 + C133 = 1
 R186: - 0.1 C34 + C134 = 1
 R187: - 0.1 C35 + C135 = 1
 R188: - 0.1 C36 + C136 = 1
 R189: - 0.1 C37 + C137 = 1
 R190: - 0.1 C38 + C138 = 1
 R191: - 0.1 C39 + C139 = 1
 R192: - 0.1 C40 + C140 = 1
 R193: - 0.1 C41 + C141 = 1
 R194: - 0.1 C42 + C142 = 1
 R195: - 0.1 C43 + C143 = 1
 R196: - 0.1 C44 + C144 = 1
 R197: - 0.1 C45 + C145 = 1
 R198: - 0.1 C46 + C146 = 1
 R199: - 0.1 C47 + C147 = 1
 R200: - 0.1 C48 + C148 = 1
 R201: - 0.1 C49 + C149 = 1
 R202: - 3.7037037037037041e-04 C0 + C150 = 0.1
 R203: - 3.7037037037037041e-04 C1 - C150 + C151 = 0
 R204: - 3.7037037037037041e-04 C2 - C151 + C152 = 0
 R205: - 3.7037037037037041e-04 C3 - C152 + C153 = 0
 R206: - 3.7037037037037041e-04 C4 - C153 + C154 = 0
 R207: - 3.7037037037037041e-04 C5 - C154 + C155 = 0
 R208: - 3.7037037037037041e-04 C6 - C155 + C156 = 0
 R209: - 3.7037037037037041e-04 C7 - C156 + C157 = 0
 R210: - 3.7037037037037041e-04 C8 - C157 + C158 = 0
 R211: - 3.7037037037037041e-04 C9 - C158 + C159 = 0
 R212: - 3.7037037037037041e-04 C10 - C159 + C160 = 0
 R213: - 3.7037037037037041e-04 C11 - C160 + C161 = 0
 R214: - 3.7037037037037041e-04 C12 - C161 + C162 = 0
 R215: - 3.7037037037037041e-04 C13 - C162 + C163 = 0
 R216: - 3.7037037037037041e-04 C14 - C163 + C164 = 0
 R217: - 3.7037037037037041e-04 C15 - C164 + C165 = 0
 R218: - 3.7037037037037041e-04 C16 - C165 + C166 = 0
 R219: - 3.7037037037037041e-04 C17 - C166 + C167 = 0
 R220: - 3.7037037037037041e-04 C18 - C167 + C168 = 0
 R221: - 3.7037037037037041e-04 C19 - C168 + C169 = 0
 R222: - 3.7037037037037041e-04 C20 - C169 + C170 = 0
 R223: - 3.7037037037037041e-04 C21 - C170 + C171 = 0
 R224: - 3.7037037037037041e-04 C22 - C171 + C172 = 0
 R225: - 3.7037037037037041e-04 C23 - C172 + C173 = 0
 R226: - 3.7037037037037041e-04 C24 - C173 + C174 = 0
 R227: - 3.7037037037037041e-04 C25 - C174 + C175 = 0
 R228: - 3.7037037037037041e-04 C26 - C175 + C176 = 0
 R229: - 3.7037037037037041e-04 C27 - C176 + C177 = 0
 R230: - 3.7037037037037041e-04 C28 - C177 + C178 = 0
 R231: - 3.7037037037037041e-04 C29 - C178 + C179 = 0
 R232: - 3.7037037037037041e-04 C30 - C179 + C180 = 0
 R233: - 3.7037037037037041e-04 C31 - C180 + C181 = 0
 R234: - 3.7037037037037041e-04 C32 - C181 + C182 = 0
 R235: - 3.7037037037037041e-04 C33 - C182 + C183 = 0
 R236: - 3.7037037037037041e-04 C34 - C183 + C184 = 0
 R237: - 3.7037037037037041e-04 C35 - C184 + C185 = 0
 R238: - 3.7037037037037041e-04 C36 - C185 + C186 = 0
 R239: - 3.7037037037037041e-04 C37 - C186 + C187 = 0
 R240: - 3.7037037037037041e-04 C38 - C187 + C188 = 0
 R241: - 3.7037037037037041e-04 C39 - C188 + C189 = 0
 R242: - 3.7037037037037041e-04 C40 - C189 + C190 = 0
 R243: - 3.7037037037037041e-04 C41 - C190 + C191 = 0
 R244: - 3.7037037037037041e-04 C42 - C191 + C192 = 0
 R245: - 3.7037037037037041e-04 C43 - C192 + C193 = 0
 R246: - 3.7037037037037041e-04 C44 - C193 + C194 = 0
 R247: - 3.7037037037037041e-04 C45 - C194 + C195 = 0
 R248: - 3.7037037037037041e-04 C46 - C195 + C196 = 0
 R249: - 3.7037037037037041e-04 C47 - C196 + C197 = 0
 R250: - 3.7037037037037041e-04 C48 - C197 + C198 = 0
 R251: - 3.7037037037037041e-04 C49 - C198 + C199 = 0
 R252: - 1.851851851851852e-04 C0 + C200 = 0.1
 R253: - 1.851851851851852e-04 C1 - C150 + C201 = 0
 R254: - 1.851851851851852e-04 C2 - C151 + C202 = 0
 R255: - 1.851851851851852e-04 C3 - C152 + C203 = 0
 R256: - 1.851851851851852e-04 C4 - C153 + C204 = 0
 R257: - 1.851851851851852e-04 C5 - C154 + C205 = 0
 R258: - 1.851851851851852e-04 C6 - C155 + C206 = 0
 R259: - 1.851851851851852e-04 C7 - C156 + C207 = 0
 R260: - 1.851851851851852e-04 C8 - C157 + C208 = 0
 R261: - 1.851851851851852e-04 C9 - C158 + C209 = 0
 R262: - 1.851851851851852e-04 C10 - C159 + C210 = 0
 R263: - 1.851851851851852e-04 C11 - C160 + C211 = 0
 R264: - 1.851851851851852e-04 C12 - C161 + C212 = 0
 R265: - 1.851851851851852e-04 C13 - C162 + C213 = 0
 R266: - 1.851851851851852e-04 C14 - C163 + C214 = 0
 R267: - 1.851851851851852e-04 C15 - C164 + C215 = 0
 R268: - 1.851851851851852e-04 C16 - C165 + C216 = 0
 R269: - 1.851851851851852e-04 C17 - C166 + C217 = 0
 R270: - 1.851851851851852e-04 C18 - C167 + C218 = 0
 R271: - 1.851851851851852e-04 C19 - C168 + C219 = 0
 R272: - 1.851851851851852e-04 C20 - C169 + C220 = 0
 R273: - 1.851851851851852e-04 C21 - C170 + C221 = 0
 R274: - 1.851851851851852e-04 C22 - C171 + C222 = 0
 R275: - 1.851851851851852e-04 C23 - C172 + C223 = 0
 R276: - 1.851851851851852e-04 C24 - C173 + C224 = 0
 R277: - 1.851851851851852e-04 C25 - C174 + C225 = 0
 R278: - 1.851851851851852e-04 C26 - C175 + C226 = 0
 R279: - 1.851851851851852e-04 C27 - C176 + C227 = 0
 R280: - 1.851851851851852e-04 C28 - C177 + C228 = 0
 R281: - 1.851851851851852e-04 C29 - C178 + C229 = 0
 R282: - 1.851851851851852e-04 C30 - C179 + C230 = 0
 R283: - 1.851851851851852e-04 C31 - C180 + C231 = 0
 R284: - 1.851851851851852e-04 C32 - C181 + C232 = 0
 R285: - 1.851851851851852e-04 C33 - C182 + C233 = 0
 R286: - 1.851851851851852e-04 C34 - C183 + C234 = 0
 R287: - 1.851851851851852e-04 C35 - C184 + C235 = 0
 R288: - 1.851851851851852e-04 C36 - C185 + C236 = 0
 R289: - 1.851851851851852e-04 C37 - C186 + C237 = 0
 R290: - 1.851851851851852e-04 C38 - C187 + C238 = 0
 R291: - 1.851851851851852e-04 C39 - C188 + C239 = 0
 R292: - 1.851851851851852e-04 C40 - C189 + C240 = 0
 R293: - 1.851851851851852e-04 C41 - C190 + C241 = 0
 R294: - 1.851851851851852e-04 C42 - C191 + C242 = 0
 R295: - 1.851851851851852e-04 C43 - C192 + C243 = 0
 R296: - 1.851851851851852e-04 C44 - C193 + C244 = 0
 R297: - 1.851851851851852e-04 C45 - C194 + C245 = 0
 R298: - 1.851851851851852e-04 C46 - C195 + C246 = 0
 R299: - 1.851851851851852e-04 C47 - C196 + C247 = 0
 R300: - 1.851851851851852e-04 C48 - C197 + C248 = 0
 R301: - 1.851851851851852e-04 C49 - C198 + C249 = 0
 R302: - 1.851851851851852e-04 C0 + C250 = 0
 R303: - 1.851851851851852e-04 C1 + C251 = 0
 R304: - 1.851851851851852e-04 C2 + C252 = 0
 R305: - 1.851851851851852e-04 C3 + C253 = 0
 R306: - 1.851851851851852e-04 C4 + C254 = 0
 R307: - 1.851851851851852e-04 C5 + C255 = 0
 R308: - 1.851851851851852e-04 C6 + C256 = 0
 R309: - 1.851851851851852e-04 C7 + C257 = 0
 R310: - 1.851851851851852e-04 C8 + C258 = 0
 R311: - 1.851851851851852e-04 C9 + C259 = 0
 R312: - 1.851851851851852e-04 C10 + C260 = 0
 R313: - 1.851851851851852e-04 C11 + C261 = 0
 R314: - 1.851851851851852e-04 C12 + C262 = 0
 R315: - 1.851851851851852e-04 C13 + C263 = 0
 R316: - 1.851851851851852e-04 C14 + C264 = 0
 R317: - 1.851851851851852e-04 C15 + C265 = 0
 R318: - 1.851851851851852e-04 C16 + C266 = 0
 R319: - 1.851851851851852e-04 C17 + C267 = 0
 R320: - 1.851851851851852e-04 C18 + C268 = 0
 R321: - 1.851851851851852e-04 C19 + C269 = 0
 R322: - 1.851851851851852e-04 C20 + C270 = 0
 R323: - 1.851851851851852e-04 C21 + C271 = 0
 R324: - 1.851851851851852e-04 C22 + C272 = 0
 R325: - 1.851851851851852e-04 C23 + C273 = 0
 R326: - 1.851851851851852e-04 C24 + C274 = 0
 R327: - 1.851851851851852e-04 C25 + C275 = 0
 R328: - 1.851851851851852e-04 C26 + C276 = 0
 R329: - 1.851851851851852e-04 C27 + C277 = 0
 R330: - 1.851851851851852e-04 C28 + C278 = 0
 R331: - 1.851851851851852e-04 C29 + C279 = 0
 R332: - 1.851851851851852e-04 C30 + C280 = 0
 R333: - 1.851851851851852e-04 C31 + C281 = 0
 R334: - 1.851851851851852e-04 C32 + C282 = 0
 R335: - 1.851851851851852e-04 C33 + C283 = 0
 R336: - 1.851851851851852e-04 C34 + C284 = 0
 R337: - 1.851851851851852e-04 C35 + C285 = 0
 R338: - 1.851851851851852e-04 C36 + C286 = 0
 R339: - 1.851851851851852e-04 C37 + C287 = 0
 R340: - 1.851851851851852e-04 C38 + C288 = 0
 R341: - 1.851851851851852e-04 C39 + C289 = 0
 R342: - 1.851851851851852e-04 C40 + C290 = 0
 R343: - 1.851851851851852e-04 C41 + C291 = 0
 R344: - 1.851851851851852e-04 C42 + C292 = 0
 R345: - 1.851851851851852e-04 C43 + C293 = 0
 R346: - 1.851851851851852e-04 C44 + C294 = 0
 R347: - 1.851851851851852e-04 C45 + C295 = 0
 R348: - 1.851851851851852e-04 C46 + C296 = 0
 R349: - 1.851851851851852e-04 C47 + C297 = 0
 R350: - 1.851851851851852e-04 C48 + C298 = 0
 R351: - 1.851851851851852e-04 C49 + C299 = 0
 R352: 2.167 C200 + C350 = 0
 R353: 2.167 C201 + C351 = 0
 R354: 2.167 C202 + C352 = 0
 R355: 2.167 C203 + C353 = 0
 R356: 2.167 C204 + C354 = 0
 R357: 2.167 C205 + C355 = 0
 R358: 2.167 C206 + C356 = 0
 R359: 2.167 C207 + C357 = 0
 R360: 2.167 C208 + C358 = 0
 R361: 2.167 C209 + C359 = 0
 R362: 2.167 C210 + C360 = 0
 R363: 2.167 C211 + C361 = 0
 R364: 2.167 C212 + C362 = 0
 R365: 2.167 C213 + C363 = 0
 R366: 2.167 C214 + C364 = 0
 R367: 2.167 C215 + C365 = 0
 R368: 2.167 C216 + C366 = 0
 R369: 2.167 C217 + C367 = 0
 R370: 2.167 C218 + C368 = 0
 R371: 2.167 C219 + C369 = 0
 R372: 2.167 C220 + C370 = 0
 R373: 2.167 C221 + C371 = 0
 R374: 2.167 C222 + C372 = 0
 R375: 2.167 C223 + C373 = 0
 R376: 2.167 C224 + C374 = 0
 R377: 2.167 C225 + C375 = 0
 R378: 2.167 C226 + C376 = 0
 R379: 2.167 C227 + C377 = 0
 R380: 2.167 C228 + C378 = 0
 R381: 2.167 C229 + C379 = 0
 R382: 2.167 C230 + C380 = 0
 R383: 2.167 C231 + C381 = 0
 R384: 2.167 C232 + C382 = 0
 R385: 2.167 C233 + C383 = 0
 R386: 2.167 C234 + C384 = 0
 R387: 2.167 C235 + C385 = 0
 R388: 2.167 C236 + C386 = 0
 R389: 2.167 C237 + C387 = 0
 R390: 2.167 C238 + C388 = 0
 R391: 2.167 C239 + C389 = 0
 R392: 2.167 C240 + C390 = 0
 R393: 2.167 C241 + C391 = 0
 R394: 2.167 C242 + C392 = 0
 R395: 2.167 C243 + C393 = 0
 R396: 2.167 C244 + C394 = 0
 R397: 2.167 C245 + C395 = 0
 R398: 2.167 C246 + C396 = 0
 R399: 2.167 C247 + C397 = 0
 R400: 2.167 C248 + C398 = 0
 R401: 2.167 C249 + C399 = 0
 R402: - 6.13 C250 + C450 = 0
 R403: - 6.13 C251 + C451 = 0
 R404: - 6.13 C252 + C452 = 0
 R405: - 6.13 C253 + C453 = 0
 R406: - 6.13 C254 + C454 = 0
 R407: - 6.13 C255 + C455 = 0
 R408: - 6.13 C256 + C456 = 0
 R409: - 6.13 C257 + C457 = 0
 R410: - 6.13 C258 + C458 = 0
 R411: - 6.13 C259 + C459 = 0
 R412: - 6.13 C260 + C460 = 0
 R413: - 6.13 C261 + C461 = 0
 R414: - 6.13 C262 + C462 = 0
 R415: - 6.13 C263 + C463 = 0
 R416: - 6.13 C264 + C464 = 0
 R417: - 6.13 C265 + C465 = 0
 R418: - 6.13 C266 + C466 = 0
 R419: - 6.13 C267 + C467 = 0
 R420: - 6.13 C268 + C468 = 0
 R421: - 6.13 C269 + C469 = 0
 R422: - 6.13 C270 + C470 = 0
 R423: - 6.13 C271 + C471 = 0
 R424: - 6.13 C272 + C472 = 0
 R425: - 6.13 C273 + C473 = 0
 R426: - 6.13 C274 + C474 = 0
 R427: - 6.13 C275 + C475 = 0
 R428: - 6.13 C276 + C476 = 0
 R429: - 6.13 C277 + C477 = 0
 R430: - 6.13 C278 + C478 = 0
 R431: - 6.13 C279 + C479 = 0
 R432: - 6.13 C280 + C480 = 0
 R433: - 6.13 C281 + C481 = 0
 R434: - 6.13 C282 + C482 = 0
 R435: - 6.13 C283 + C483 = 0
 R436: - 6.13 C284 + C484 = 0
 R437: - 6.13 C285 + C485 = 0
 R438: - 6.13 C286 + C486 = 0
 R439: - 6.13 C287 + C487 = 0
 R440: - 6.13 C288 + C488 = 0
 R441: - 6.13 C289 + C489 = 0
 R442: - 6.13 C290 + C490 = 0
 R443: - 6.13 C291 + C491 = 0
 R444: - 6.13 C292 + C492 = 0
 R445: - 6.13 C293 + C493 = 0
 R446: - 6.13 C294 + C494 = 0
 R447: - 6.13 C295 + C495 = 0
 R448: - 6.13 C296 + C496 = 0
 R449: - 6.13 C297 + C497 = 0
 R450: - 6.13 C298 + C498 = 0
 R451: - 6.13 C299 + C499 = 0
 R452: - C500 + C600 = 12
 R453: - C501 + C601 = 12
 R454: - C502 + C602 = 12
 R455: - C503 + C603 = 12
 R456: - C504 + C604 = 12
 R457: - C505 + C605 = 12
 R458: - C506 + C606 = 12
 R459: - C507 + C607 = 12
 R460: - C508 + C608 = 12
 R461: - C509 + C609 = 12
 R462: - C510 + C610 = 12
 R463: - C511 + C611 = 12
 R464: - C512 + C612 = 12
 R465: - C513 + C613 = 12
 R466: - C514 + C614 = 12
 R467: - C515 + C615 = 12
 R468: - C516 + C616 = 12
 R469: - C517 + C617 = 12
 R470: - C518 + C618 = 12
 R471: - C519 + C619 = 12
 R472: - C520 + C620 = 12
 R473: - C521 + C621 = 12
 R474: - C522 + C622 = 12
 R475: - C523 + C623 = 12
 R476: - C524 + C624 = 12
 R477: - C525 + C625 = 12
 R478: - C526 + C626 = 12
 R479: - C527 + C627 = 12
 R480: - C528 + C628 = 12
 R481: - C529 + C629 = 12
 R482: - C530 + C630 = 12
 R483: - C531 + C631 = 12
 R484: - C532 + C632 = 12
 R485: - C533 + C633 = 12
 R486: - C534 + C634 = 12
 R487: - C535 + C635 = 12
 R488: - C536 + C636 = 12
 R489: - C537 + C637 = 12
 R490: - C538 + C638 = 12
 R491: - C539 + C639 = 12
 R492: - C540 + C640 = 12
 R493: - C541 + C641 = 12
 R494: - C542 + C642 = 12
 R495: - C543 + C643 = 12
 R496: - C544 + C644 = 12
 R497: - C545 + C645 = 12
 R498: - C546 + C646 = 12
 R499: - C547 + C647 = 12
 R500: - C548 + C648 = 12
 R501: - C549 + C649 = 12
 quad0: - 1.408e-05 C400 + C550 + [ 0.0004092 C250 * C300 ] = 0.0008
 quad1: - 1.408e-05 C401 + C551 + [ 0.0004092 C251 * C301 ] = 0.0008
 quad2: - 1.408e-05 C402 + C552 + [ 0.0004092 C252 * C302 ] = 0.0008
 quad3: - 1.408e-05 C403 + C553 + [ 0.0004092 C253 * C303 ] = 0.0008
 quad4: - 1.408e-05 C404 + C554 + [ 0.0004092 C254 * C304 ] = 0.0008
 quad5: - 1.408e-05 C405 + C555 + [ 0.0004092 C255 * C305 ] = 0.0008
 quad6: - 1.408e-05 C406 + C556 + [ 0.0004092 C256 * C306 ] = 0.0008
 quad7: - 1.408e-05 C407 + C557 + [ 0.0004092 C257 * C307 ] = 0.0008
 quad8: - 1.408e-05 C408 + C558 + [ 0.0004092 C258 * C308 ] = 0.0008
 quad9: - 1.408e-05 C409 + C559 + [ 0.0004092 C259 * C309 ] = 0.0008
 quad10: - 1.408e-05 C410 + C560 + [ 0.0004092 C260 * C310 ] = 0.0008
 quad11: - 1.408e-05 C411 + C561 + [ 0.0004092 C261 * C311 ] = 0.0008
 quad12: - 1.408e-05 C412 + C562 + [ 0.0004092 C262 * C312 ] = 0.0008
 quad13: - 1.408e-05 C413 + C563 + [ 0.0004092 C263 * C313 ] = 0.0008
 quad14: - 1.408e-05 C414 + C564 + [ 0.0004092 C264 * C314 ] = 0.0008
 quad15: - 1.408e-05 C415 + C565 + [ 0.0004092 C265 * C315 ] = 0.0008
 quad16: - 1.408e-05 C416 + C566 + [ 0.0004092 C266 * C316 ] = 0.0008
 quad17: - 1.408e-05 C417 + C567 + [ 0.0004092 C267 * C317 ] = 0.0008
 quad18: - 1.408e-05 C418 + C568 + [ 0.0004092 C268 * C318 ] = 0.0008
 quad19: - 1.408e-05 C419 + C569 + [ 0.0004092 C269 * C319 ] = 0.0008
 quad20: - 1.408e-05 C420 + C570 + [ 0.0004092 C270 * C320 ] = 0.0008
 quad21: - 1.408e-05 C421 + C571 + [ 0.0004092 C271 * C321 ] = 0.0008
 quad22: - 1.408e-05 C422 + C572 + [ 0.0004092 C272 * C322 ] = 0.0008
 quad23: - 1.408e-05 C423 + C573 + [ 0.0004092 C273 * C323 ] = 0.0008
 quad24: - 1.408e-05 C424 + C574 + [ 0.0004092 C274 * C324 ] = 0.0008
 quad25: - 1.408e-05 C425 + C575 + [ 0.0004092 C275 * C325 ] = 0.0008
 quad26: - 1.408e-05 C426 + C576 + [ 0.0004092 C276 * C326 ] = 0.0008
 quad27: - 1.408e-05 C427 + C577 + [ 0.0004092 C277 * C327 ] = 0.0008
 quad28: - 1.408e-05 C428 + C578 + [ 0.0004092 C278 * C328 ] = 0.0008
 quad29: - 1.408e-05 C429 + C579 + [ 0.0004092 C279 * C329 ] = 0.0008
 quad30: - 1.408e-05 C430 + C580 + [ 0.0004092 C280 * C330 ] = 0.0008
 quad31: - 1.408e-05 C431 + C581 + [ 0.0004092 C281 * C331 ] = 0.0008
 quad32: - 1.408e-05 C432 + C582 + [ 0.0004092 C282 * C332 ] = 0.0008
 quad33: - 1.408e-05 C433 + C583 + [ 0.0004092 C283 * C333 ] = 0.0008
 quad34: - 1.408e-05 C434 + C584 + [ 0.0004092 C284 * C334 ] = 0.0008
 quad35: - 1.408e-05 C435 + C585 + [ 0.0004092 C285 * C335 ] = 0.0008
 quad36: - 1.408e-05 C436 + C586 + [ 0.0004092 C286 * C336 ] = 0.0008
 quad37: - 1.408e-05 C437 + C587 + [ 0.0004092 C287 * C337 ] = 0.0008
 quad38: - 1.408e-05 C438 + C588 + [ 0.0004092 C288 * C338 ] = 0.0008
 quad39: - 1.408e-05 C439 + C589 + [ 0.0004092 C289 * C339 ] = 0.0008
 quad40: - 1.408e-05 C440 + C590 + [ 0.0004092 C290 * C340 ] = 0.0008
 quad41: - 1.408e-05 C441 + C591 + [ 0.0004092 C291 * C341 ] = 0.0008
 quad42: - 1.408e-05 C442 + C592 + [ 0.0004092 C292 * C342 ] = 0.0008
 quad43: - 1.408e-05 C443 + C593 + [ 0.0004092 C293 * C343 ] = 0.0008
 quad44: - 1.408e-05 C444 + C594 + [ 0.0004092 C294 * C344 ] = 0.0008
 quad45: - 1.408e-05 C445 + C595 + [ 0.0004092 C295 * C345 ] = 0.0008
 quad46: - 1.408e-05 C446 + C596 + [ 0.0004092 C296 * C346 ] = 0.0008
 quad47: - 1.408e-05 C447 + C597 + [ 0.0004092 C297 * C347 ] = 0.0008
 quad48: - 1.408e-05 C448 + C598 + [ 0.0004092 C298 * C348 ] = 0.0008
 quad49: - 1.408e-05 C449 + C599 + [ 0.0004092 C299 * C349 ] = 0.0008
Bounds
 C0 <= 100
 C1 <= 100
 C2 <= 100
 C3 <= 100
 C4 <= 100
 C5 <= 100
 C6 <= 100
 C7 <= 100
 C8 <= 100
 C9 <= 100
 C10 <= 100
 C11 <= 100
 C12 <= 100
 C13 <= 100
 C14 <= 100
 C15 <= 100
 C16 <= 100
 C17 <= 100
 C18 <= 100
 C19 <= 100
 C20 <= 100
 C21 <= 100
 C22 <= 100
 C23 <= 100
 C24 <= 100
 C25 <= 100
 C26 <= 100
 C27 <= 100
 C28 <= 100
 C29 <= 100
 C30 <= 100
 C31 <= 100
 C32 <= 100
 C33 <= 100
 C34 <= 100
 C35 <= 100
 C36 <= 100
 C37 <= 100
 C38 <= 100
 C39 <= 100
 C40 <= 100
 C41 <= 100
 C42 <= 100
 C43 <= 100
 C44 <= 100
 C45 <= 100
 C46 <= 100
 C47 <= 100
 C48 <= 100
 C49 <= 100
 C50 <= 2
 C51 <= 2
 C52 <= 2
 C53 <= 2
 C54 <= 2
 C55 <= 2
 C56 <= 2
 C57 <= 2
 C58 <= 2
 C59 <= 2
 C60 <= 2
 C61 <= 2
 C62 <= 2
 C63 <= 2
 C64 <= 2
 C65 <= 2
 C66 <= 2
 C67 <= 2
 C68 <= 2
 C69 <= 2
 C70 <= 2
 C71 <= 2
 C72 <= 2
 C73 <= 2
 C74 <= 2
 C75 <= 2
 C76 <= 2
 C77 <= 2
 C78 <= 2
 C79 <= 2
 C80 <= 2
 C81 <= 2
 C82 <= 2
 C83 <= 2
 C84 <= 2
 C85 <= 2
 C86 <= 2
 C87 <= 2
 C88 <= 2
 C89 <= 2
 C90 <= 2
 C91 <= 2
 C92 <= 2
 C93 <= 2
 C94 <= 2
 C95 <= 2
 C96 <= 2
 C97 <= 2
 C98 <= 2
 C99 <= 2
 C100 <= 10
 C101 <= 10
 C102 <= 10
 C103 <= 10
 C104 <= 10
 C105 <= 10
 C106 <= 10
 C107 <= 10
 C108 <= 10
 C109 <= 10
 C110 <= 10
 C111 <= 10
 C112 <= 10
 C113 <= 10
 C114 <= 10
 C115 <= 10
 C116 <= 10
 C117 <= 10
 C118 <= 10
 C119 <= 10
 C120 <= 10
 C121 <= 10
 C122 <= 10
 C123 <= 10
 C124 <= 10
 C125 <= 10
 C126 <= 10
 C127 <= 10
 C128 <= 10
 C129 <= 10
 C130 <= 10
 C131 <= 10
 C132 <= 10
 C133 <= 10
 C134 <= 10
 C135 <= 10
 C136 <= 10
 C137 <= 10
 C138 <= 10
 C139 <= 10
 C140 <= 10
 C141 <= 10
 C142 <= 10
 C143 <= 10
 C144 <= 10
 C145 <= 10
 C146 <= 10
 C147 <= 10
 C148 <= 10
 C149 <= 10
 C150 <= 1
 C151 <= 1
 C152 <= 1
 C153 <= 1
 C154 <= 1
 C155 <= 1
 C156 <= 1
 C157 <= 1
 C158 <= 1
 C159 <= 1
 C160 <= 1
 C161 <= 1
 C162 <= 1
 C163 <= 1
 C164 <= 1
 C165 <= 1
 C166 <= 1
 C167 <= 1
 C168 <= 1
 C169 <= 1
 C170 <= 1
 C171 <= 1
 C172 <= 1
 C173 <= 1
 C174 <= 1
 C175 <= 1
 C176 <= 1
 C177 <= 1
 C178 <= 1
 C179 <= 1
 C180 <= 1
 C181 <= 1
 C182 <= 1
 C183 <= 1
 C184 <= 1
 C185 <= 1
 C186 <= 1
 C187 <= 1
 C188 <= 1
 C189 <= 1
 C190 <= 1
 C191 <= 1
 C192 <= 1
 C193 <= 1
 C194 <= 1
 C195 <= 1
 C196 <= 1
 C197 <= 1
 C198 <= 1
 C199 <= 1
 C200 <= 1
 C201 <= 1
 C202 <= 1
 C203 <= 1
 C204 <= 1
 C205 <= 1
 C206 <= 1
 C207 <= 1
 C208 <= 1
 C209 <= 1
 C210 <= 1
 C211 <= 1
 C212 <= 1
 C213 <= 1
 C214 <= 1
 C215 <= 1
 C216 <= 1
 C217 <= 1
 C218 <= 1
 C219 <= 1
 C220 <= 1
 C221 <= 1
 C222 <= 1
 C223 <= 1
 C224 <= 1
 C225 <= 1
 C226 <= 1
 C227 <= 1
 C228 <= 1
 C229 <= 1
 C230 <= 1
 C231 <= 1
 C232 <= 1
 C233 <= 1
 C234 <= 1
 C235 <= 1
 C236 <= 1
 C237 <= 1
 C238 <= 1
 C239 <= 1
 C240 <= 1
 C241 <= 1
 C242 <= 1
 C243 <= 1
 C244 <= 1
 C245 <= 1
 C246 <= 1
 C247 <= 1
 C248 <= 1
 C249 <= 1
 C250 <= 1
 C251 <= 1
 C252 <= 1
 C253 <= 1
 C254 <= 1
 C255 <= 1
 C256 <= 1
 C257 <= 1
 C258 <= 1
 C259 <= 1
 C260 <= 1
 C261 <= 1
 C262 <= 1
 C263 <= 1
 C264 <= 1
 C265 <= 1
 C266 <= 1
 C267 <= 1
 C268 <= 1
 C269 <= 1
 C270 <= 1
 C271 <= 1
 C272 <= 1
 C273 <= 1
 C274 <= 1
 C275 <= 1
 C276 <= 1
 C277 <= 1
 C278 <= 1
 C279 <= 1
 C280 <= 1
 C281 <= 1
 C282 <= 1
 C283 <= 1
 C284 <= 1
 C285 <= 1
 C286 <= 1
 C287 <= 1
 C288 <= 1
 C289 <= 1
 C290 <= 1
 C291 <= 1
 C292 <= 1
 C293 <= 1
 C294 <= 1
 C295 <= 1
 C296 <= 1
 C297 <= 1
 C298 <= 1
 C299 <= 1
 C300 <= 1
 C301 <= 1
 C302 <= 1
 C303 <= 1
 C304 <= 1
 C305 <= 1
 C306 <= 1
 C307 <= 1
 C308 <= 1
 C309 <= 1
 C310 <= 1
 C311 <= 1
 C312 <= 1
 C313 <= 1
 C314 <= 1
 C315 <= 1
 C316 <= 1
 C317 <= 1
 C318 <= 1
 C319 <= 1
 C320 <= 1
 C321 <= 1
 C322 <= 1
 C323 <= 1
 C324 <= 1
 C325 <= 1
 C326 <= 1
 C327 <= 1
 C328 <= 1
 C329 <= 1
 C330 <= 1
 C331 <= 1
 C332 <= 1
 C333 <= 1
 C334 <= 1
 C335 <= 1
 C336 <= 1
 C337 <= 1
 C338 <= 1
 C339 <= 1
 C340 <= 1
 C341 <= 1
 C342 <= 1
 C343 <= 1
 C344 <= 1
 C345 <= 1
 C346 <= 1
 C347 <= 1
 C348 <= 1
 C349 <= 1
 -3 <= C350 <= 0
 -3 <= C351 <= 0
 -3 <= C352 <= 0
 -3 <= C353 <= 0
 -3 <= C354 <= 0
 -3 <= C355 <= 0
 -3 <= C356 <= 0
 -3 <= C357 <= 0
 -3 <= C358 <= 0
 -3 <= C359 <= 0
 -3 <= C360 <= 0
 -3 <= C361 <= 0
 -3 <= C362 <= 0
 -3 <= C363 <= 0
 -3 <= C364 <= 0
 -3 <= C365 <= 0
 -3 <= C366 <= 0
 -3 <= C367 <= 0
 -3 <= C368 <= 0
 -3 <= C369 <= 0
 -3 <= C370 <= 0
 -3 <= C371 <= 0
 -3 <= C372 <= 0
 -3 <= C373 <= 0
 -3 <= C374 <= 0
 -3 <= C375 <= 0
 -3 <= C376 <= 0
 -3 <= C377 <= 0
 -3 <= C378 <= 0
 -3 <= C379 <= 0
 -3 <= C380 <= 0
 -3 <= C381 <= 0
 -3 <= C382 <= 0
 -3 <= C383 <= 0
 -3 <= C384 <= 0
 -3 <= C385 <= 0
 -3 <= C386 <= 0
 -3 <= C387 <= 0
 -3 <= C388 <= 0
 -3 <= C389 <= 0
 -3 <= C390 <= 0
 -3 <= C391 <= 0
 -3 <= C392 <= 0
 -3 <= C393 <= 0
 -3 <= C394 <= 0
 -3 <= C395 <= 0
 -3 <= C396 <= 0
 -3 <= C397 <= 0
 -3 <= C398 <= 0
 -3 <= C399 <= 0
 1 <= C400 <= 1097
 1 <= C401 <= 1097
 1 <= C402 <= 1097
 1 <= C403 <= 1097
 1 <= C404 <= 1097
 1 <= C405 <= 1097
 1 <= C406 <= 1097
 1 <= C407 <= 1097
 1 <= C408 <= 1097
 1 <= C409 <= 1097
 1 <= C410 <= 1097
 1 <= C411 <= 1097
 1 <= C412 <= 1097
 1 <= C413 <= 1097
 1 <= C414 <= 1097
 1 <= C415 <= 1097
 1 <= C416 <= 1097
 1 <= C417 <= 1097
 1 <= C418 <= 1097
 1 <= C419 <= 1097
 1 <= C420 <= 1097
 1 <= C421 <= 1097
 1 <= C422 <= 1097
 1 <= C423 <= 1097
 1 <= C424 <= 1097
 1 <= C425 <= 1097
 1 <= C426 <= 1097
 1 <= C427 <= 1097
 1 <= C428 <= 1097
 1 <= C429 <= 1097
 1 <= C430 <= 1097
 1 <= C431 <= 1097
 1 <= C432 <= 1097
 1 <= C433 <= 1097
 1 <= C434 <= 1097
 1 <= C435 <= 1097
 1 <= C436 <= 1097
 1 <= C437 <= 1097
 1 <= C438 <= 1097
 1 <= C439 <= 1097
 1 <= C440 <= 1097
 1 <= C441 <= 1097
 1 <= C442 <= 1097
 1 <= C443 <= 1097
 1 <= C444 <= 1097
 1 <= C445 <= 1097
 1 <= C446 <= 1097
 1 <= C447 <= 1097
 1 <= C448 <= 1097
 1 <= C449 <= 1097
 C450 <= 7
 C451 <= 7
 C452 <= 7
 C453 <= 7
 C454 <= 7
 C455 <= 7
 C456 <= 7
 C457 <= 7
 C458 <= 7
 C459 <= 7
 C460 <= 7
 C461 <= 7
 C462 <= 7
 C463 <= 7
 C464 <= 7
 C465 <= 7
 C466 <= 7
 C467 <= 7
 C468 <= 7
 C469 <= 7
 C470 <= 7
 C471 <= 7
 C472 <= 7
 C473 <= 7
 C474 <= 7
 C475 <= 7
 C476 <= 7
 C477 <= 7
 C478 <= 7
 C479 <= 7
 C480 <= 7
 C481 <= 7
 C482 <= 7
 C483 <= 7
 C484 <= 7
 C485 <= 7
 C486 <= 7
 C487 <= 7
 C488 <= 7
 C489 <= 7
 C490 <= 7
 C491 <= 7
 C492 <= 7
 C493 <= 7
 C494 <= 7
 C495 <= 7
 C496 <= 7
 C497 <= 7
 C498 <= 7
 C499 <= 7
 -10 <= C500 <= 0
 -10 <= C501 <= 0
 -10 <= C502 <= 0
 -10 <= C503 <= 0
 -10 <= C504 <= 0
 -10 <= C505 <= 0
 -10 <= C506 <= 0
 -10 <= C507 <= 0
 -10 <= C508 <= 0
 -10 <= C509 <= 0
 -10 <= C510 <= 0
 -10 <= C511 <= 0
 -10 <= C512 <= 0
 -10 <= C513 <= 0
 -10 <= C514 <= 0
 -10 <= C515 <= 0
 -10 <= C516 <= 0
 -10 <= C517 <= 0
 -10 <= C518 <= 0
 -10 <= C519 <= 0
 -10 <= C520 <= 0
 -10 <= C521 <= 0
 -10 <= C522 <= 0
 -10 <= C523 <= 0
 -10 <= C524 <= 0
 -10 <= C525 <= 0
 -10 <= C526 <= 0
 -10 <= C527 <= 0
 -10 <= C528 <= 0
 -10 <= C529 <= 0
 -10 <= C530 <= 0
 -10 <= C531 <= 0
 -10 <= C532 <= 0
 -10 <= C533 <= 0
 -10 <= C534 <= 0
 -10 <= C535 <= 0
 -10 <= C536 <= 0
 -10 <= C537 <= 0
 -10 <= C538 <= 0
 -10 <= C539 <= 0
 -10 <= C540 <= 0
 -10 <= C541 <= 0
 -10 <= C542 <= 0
 -10 <= C543 <= 0
 -10 <= C544 <= 0
 -10 <= C545 <= 0
 -10 <= C546 <= 0
 -10 <= C547 <= 0
 -10 <= C548 <= 0
 -10 <= C549 <= 0
 C550 <= 0.016
 C551 <= 0.016
 C552 <= 0.016
 C553 <= 0.016
 C554 <= 0.016
 C555 <= 0.016
 C556 <= 0.016
 C557 <= 0.016
 C558 <= 0.016
 C559 <= 0.016
 C560 <= 0.016
 C561 <= 0.016
 C562 <= 0.016
 C563 <= 0.016
 C564 <= 0.016
 C565 <= 0.016
 C566 <= 0.016
 C567 <= 0.016
 C568 <= 0.016
 C569 <= 0.016
 C570 <= 0.016
 C571 <= 0.016
 C572 <= 0.016
 C573 <= 0.016
 C574 <= 0.016
 C575 <= 0.016
 C576 <= 0.016
 C577 <= 0.016
 C578 <= 0.016
 C579 <= 0.016
 C580 <= 0.016
 C581 <= 0.016
 C582 <= 0.016
 C583 <= 0.016
 C584 <= 0.016
 C585 <= 0.016
 C586 <= 0.016
 C587 <= 0.016
 C588 <= 0.016
 C589 <= 0.016
 C590 <= 0.016
 C591 <= 0.016
 C592 <= 0.016
 C593 <= 0.016
 C594 <= 0.016
 C595 <= 0.016
 C596 <= 0.016
 C597 <= 0.016
 C598 <= 0.016
 C599 <= 0.016
 -10 <= C600 <= 80
 -10 <= C601 <= 80
 -10 <= C602 <= 80
 -10 <= C603 <= 80
 -10 <= C604 <= 80
 -10 <= C605 <= 80
 -10 <= C606 <= 80
 -10 <= C607 <= 80
 -10 <= C608 <= 80
 -10 <= C609 <= 80
 -10 <= C610 <= 80
 -10 <= C611 <= 80
 -10 <= C612 <= 80
 -10 <= C613 <= 80
 -10 <= C614 <= 80
 -10 <= C615 <= 80
 -10 <= C616 <= 80
 -10 <= C617 <= 80
 -10 <= C618 <= 80
 -10 <= C619 <= 80
 -10 <= C620 <= 80
 -10 <= C621 <= 80
 -10 <= C622 <= 80
 -10 <= C623 <= 80
 -10 <= C624 <= 80
 -10 <= C625 <= 80
 -10 <= C626 <= 80
 -10 <= C627 <= 80
 -10 <= C628 <= 80
 -10 <= C629 <= 80
 -10 <= C630 <= 80
 -10 <= C631 <= 80
 -10 <= C632 <= 80
 -10 <= C633 <= 80
 -10 <= C634 <= 80
 -10 <= C635 <= 80
 -10 <= C636 <= 80
 -10 <= C637 <= 80
 -10 <= C638 <= 80
 -10 <= C639 <= 80
 -10 <= C640 <= 80
 -10 <= C641 <= 80
 -10 <= C642 <= 80
 -10 <= C643 <= 80
 -10 <= C644 <= 80
 -10 <= C645 <= 80
 -10 <= C646 <= 80
 -10 <= C647 <= 80
 -10 <= C648 <= 80
 -10 <= C649 <= 80
General Constraints
 GC0: C50 = LOG ( C100 )
 GC1: C51 = LOG ( C101 )
 GC2: C52 = LOG ( C102 )
 GC3: C53 = LOG ( C103 )
 GC4: C54 = LOG ( C104 )
 GC5: C55 = LOG ( C105 )
 GC6: C56 = LOG ( C106 )
 GC7: C57 = LOG ( C107 )
 GC8: C58 = LOG ( C108 )
 GC9: C59 = LOG ( C109 )
 GC10: C60 = LOG ( C110 )
 GC11: C61 = LOG ( C111 )
 GC12: C62 = LOG ( C112 )
 GC13: C63 = LOG ( C113 )
 GC14: C64 = LOG ( C114 )
 GC15: C65 = LOG ( C115 )
 GC16: C66 = LOG ( C116 )
 GC17: C67 = LOG ( C117 )
 GC18: C68 = LOG ( C118 )
 GC19: C69 = LOG ( C119 )
 GC20: C70 = LOG ( C120 )
 GC21: C71 = LOG ( C121 )
 GC22: C72 = LOG ( C122 )
 GC23: C73 = LOG ( C123 )
 GC24: C74 = LOG ( C124 )
 GC25: C75 = LOG ( C125 )
 GC26: C76 = LOG ( C126 )
 GC27: C77 = LOG ( C127 )
 GC28: C78 = LOG ( C128 )
 GC29: C79 = LOG ( C129 )
 GC30: C80 = LOG ( C130 )
 GC31: C81 = LOG ( C131 )
 GC32: C82 = LOG ( C132 )
 GC33: C83 = LOG ( C133 )
 GC34: C84 = LOG ( C134 )
 GC35: C85 = LOG ( C135 )
 GC36: C86 = LOG ( C136 )
 GC37: C87 = LOG ( C137 )
 GC38: C88 = LOG ( C138 )
 GC39: C89 = LOG ( C139 )
 GC40: C90 = LOG ( C140 )
 GC41: C91 = LOG ( C141 )
 GC42: C92 = LOG ( C142 )
 GC43: C93 = LOG ( C143 )
 GC44: C94 = LOG ( C144 )
 GC45: C95 = LOG ( C145 )
 GC46: C96 = LOG ( C146 )
 GC47: C97 = LOG ( C147 )
 GC48: C98 = LOG ( C148 )
 GC49: C99 = LOG ( C149 )
 GC50: C300 = EXP ( C350 )
 GC51: C301 = EXP ( C351 )
 GC52: C302 = EXP ( C352 )
 GC53: C303 = EXP ( C353 )
 GC54: C304 = EXP ( C354 )
 GC55: C305 = EXP ( C355 )
 GC56: C306 = EXP ( C356 )
 GC57: C307 = EXP ( C357 )
 GC58: C308 = EXP ( C358 )
 GC59: C309 = EXP ( C359 )
 GC60: C310 = EXP ( C360 )
 GC61: C311 = EXP ( C361 )
 GC62: C312 = EXP ( C362 )
 GC63: C313 = EXP ( C363 )
 GC64: C314 = EXP ( C364 )
 GC65: C315 = EXP ( C365 )
 GC66: C316 = EXP ( C366 )
 GC67: C317 = EXP ( C367 )
 GC68: C318 = EXP ( C368 )
 GC69: C319 = EXP ( C369 )
 GC70: C320 = EXP ( C370 )
 GC71: C321 = EXP ( C371 )
 GC72: C322 = EXP ( C372 )
 GC73: C323 = EXP ( C373 )
 GC74: C324 = EXP ( C374 )
 GC75: C325 = EXP ( C375 )
 GC76: C326 = EXP ( C376 )
 GC77: C327 = EXP ( C377 )
 GC78: C328 = EXP ( C378 )
 GC79: C329 = EXP ( C379 )
 GC80: C330 = EXP ( C380 )
 GC81: C331 = EXP ( C381 )
 GC82: C332 = EXP ( C382 )
 GC83: C333 = EXP ( C383 )
 GC84: C334 = EXP ( C384 )
 GC85: C335 = EXP ( C385 )
 GC86: C336 = EXP ( C386 )
 GC87: C337 = EXP ( C387 )
 GC88: C338 = EXP ( C388 )
 GC89: C339 = EXP ( C389 )
 GC90: C340 = EXP ( C390 )
 GC91: C341 = EXP ( C391 )
 GC92: C342 = EXP ( C392 )
 GC93: C343 = EXP ( C393 )
 GC94: C344 = EXP ( C394 )
 GC95: C345 = EXP ( C395 )
 GC96: C346 = EXP ( C396 )
 GC97: C347 = EXP ( C397 )
 GC98: C348 = EXP ( C398 )
 GC99: C349 = EXP ( C399 )
 GC100: C400 = EXP ( C450 )
 GC101: C401 = EXP ( C451 )
 GC102: C402 = EXP ( C452 )
 GC103: C403 = EXP ( C453 )
 GC104: C404 = EXP ( C454 )
 GC105: C405 = EXP ( C455 )
 GC106: C406 = EXP ( C456 )
 GC107: C407 = EXP ( C457 )
 GC108: C408 = EXP ( C458 )
 GC109: C409 = EXP ( C459 )
 GC110: C410 = EXP ( C460 )
 GC111: C411 = EXP ( C461 )
 GC112: C412 = EXP ( C462 )
 GC113: C413 = EXP ( C463 )
 GC114: C414 = EXP ( C464 )
 GC115: C415 = EXP ( C465 )
 GC116: C416 = EXP ( C466 )
 GC117: C417 = EXP ( C467 )
 GC118: C418 = EXP ( C468 )
 GC119: C419 = EXP ( C469 )
 GC120: C420 = EXP ( C470 )
 GC121: C421 = EXP ( C471 )
 GC122: C422 = EXP ( C472 )
 GC123: C423 = EXP ( C473 )
 GC124: C424 = EXP ( C474 )
 GC125: C425 = EXP ( C475 )
 GC126: C426 = EXP ( C476 )
 GC127: C427 = EXP ( C477 )
 GC128: C428 = EXP ( C478 )
 GC129: C429 = EXP ( C479 )
 GC130: C430 = EXP ( C480 )
 GC131: C431 = EXP ( C481 )
 GC132: C432 = EXP ( C482 )
 GC133: C433 = EXP ( C483 )
 GC134: C434 = EXP ( C484 )
 GC135: C435 = EXP ( C485 )
 GC136: C436 = EXP ( C486 )
 GC137: C437 = EXP ( C487 )
 GC138: C438 = EXP ( C488 )
 GC139: C439 = EXP ( C489 )
 GC140: C440 = EXP ( C490 )
 GC141: C441 = EXP ( C491 )
 GC142: C442 = EXP ( C492 )
 GC143: C443 = EXP ( C493 )
 GC144: C444 = EXP ( C494 )
 GC145: C445 = EXP ( C495 )
 GC146: C446 = EXP ( C496 )
 GC147: C447 = EXP ( C497 )
 GC148: C448 = EXP ( C498 )
 GC149: C449 = EXP ( C499 )
 GC150: C500 = LOG ( C550 )
 GC151: C501 = LOG ( C551 )
 GC152: C502 = LOG ( C552 )
 GC153: C503 = LOG ( C553 )
 GC154: C504 = LOG ( C554 )
 GC155: C505 = LOG ( C555 )
 GC156: C506 = LOG ( C556 )
 GC157: C507 = LOG ( C557 )
 GC158: C508 = LOG ( C558 )
 GC159: C509 = LOG ( C559 )
 GC160: C510 = LOG ( C560 )
 GC161: C511 = LOG ( C561 )
 GC162: C512 = LOG ( C562 )
 GC163: C513 = LOG ( C563 )
 GC164: C514 = LOG ( C564 )
 GC165: C515 = LOG ( C565 )
 GC166: C516 = LOG ( C566 )
 GC167: C517 = LOG ( C567 )
 GC168: C518 = LOG ( C568 )
 GC169: C519 = LOG ( C569 )
 GC170: C520 = LOG ( C570 )
 GC171: C521 = LOG ( C571 )
 GC172: C522 = LOG ( C572 )
 GC173: C523 = LOG ( C573 )
 GC174: C524 = LOG ( C574 )
 GC175: C525 = LOG ( C575 )
 GC176: C526 = LOG ( C576 )
 GC177: C527 = LOG ( C577 )
 GC178: C528 = LOG ( C578 )
 GC179: C529 = LOG ( C579 )
 GC180: C530 = LOG ( C580 )
 GC181: C531 = LOG ( C581 )
 GC182: C532 = LOG ( C582 )
 GC183: C533 = LOG ( C583 )
 GC184: C534 = LOG ( C584 )
 GC185: C535 = LOG ( C585 )
 GC186: C536 = LOG ( C586 )
 GC187: C537 = LOG ( C587 )
 GC188: C538 = LOG ( C588 )
 GC189: C539 = LOG ( C589 )
 GC190: C540 = LOG ( C590 )
 GC191: C541 = LOG ( C591 )
 GC192: C542 = LOG ( C592 )
 GC193: C543 = LOG ( C593 )
 GC194: C544 = LOG ( C594 )
 GC195: C545 = LOG ( C595 )
 GC196: C546 = LOG ( C596 )
 GC197: C547 = LOG ( C597 )
 GC198: C548 = LOG ( C598 )
 GC199: C549 = LOG ( C599 )
End
